
Gurobi 8.1.0 (linux64) logging started Thu May 16 13:00:43 2019

Academic license - for non-commercial use only
Optimize a model with 15 rows, 50 columns and 100 nonzeros
Variable types: 0 continuous, 50 integer (50 binary)
Coefficient statistics:
  Matrix range     [1e+00, 1e+00]
  Objective range  [1e+00, 3e+02]
  Bounds range     [1e+00, 1e+00]
  RHS range        [1e+00, 1e+00]
Found heuristic solution: objective 906.0000000
Presolve time: 0.01s
Presolved: 15 rows, 50 columns, 100 nonzeros
Variable types: 0 continuous, 50 integer (50 binary)

Root relaxation: objective 5.000000e+00, 5 iterations, 0.00 seconds

    Nodes    |    Current Node    |     Objective Bounds      |     Work
 Expl Unexpl |  Obj  Depth IntInf | Incumbent    BestBd   Gap | It/Node Time

*    0     0               0       5.0000000    5.00000  0.00%     -    0s

Explored 0 nodes (5 simplex iterations) in 0.03 seconds
Thread count was 3 (of 3 available processors)

Solution count 2: 5 906 

Optimal solution found (tolerance 1.00e-04)
Best objective 5.000000000000e+00, best bound 5.000000000000e+00, gap 0.0000%
Warning: linear constraint 0 and linear constraint 1 have the same name "contrainteLigne"

Gurobi 8.1.0 (linux64) logging started Thu May 16 13:01:45 2019

Academic license - for non-commercial use only
Optimize a model with 84 rows, 1700 columns and 3400 nonzeros
Variable types: 0 continuous, 1700 integer (1700 binary)
Coefficient statistics:
  Matrix range     [1e+00, 1e+00]
  Objective range  [1e+00, 3e+02]
  Bounds range     [1e+00, 1e+00]
  RHS range        [1e+00, 1e+00]
Found heuristic solution: objective 9303.0000000
Presolve time: 0.02s
Presolved: 84 rows, 1700 columns, 3400 nonzeros
Variable types: 0 continuous, 1700 integer (1700 binary)

Root relaxation: objective 4.700000e+01, 56 iterations, 0.00 seconds

    Nodes    |    Current Node    |     Objective Bounds      |     Work
 Expl Unexpl |  Obj  Depth IntInf | Incumbent    BestBd   Gap | It/Node Time

*    0     0               0      47.0000000   47.00000  0.00%     -    0s

Explored 0 nodes (56 simplex iterations) in 0.02 seconds
Thread count was 3 (of 3 available processors)

Solution count 2: 47 9303 

Optimal solution found (tolerance 1.00e-04)
Best objective 4.700000000000e+01, best bound 4.700000000000e+01, gap 0.0000%
Warning: linear constraint 0 and linear constraint 1 have the same name "contrainteLigne"

Gurobi 8.1.0 (linux64) logging started Thu May 16 13:15:51 2019

Academic license - for non-commercial use only
Optimize a model with 110 rows, 3000 columns and 6000 nonzeros
Variable types: 0 continuous, 3000 integer (3000 binary)
Coefficient statistics:
  Matrix range     [1e+00, 1e+00]
  Objective range  [1e+00, 3e+02]
  Bounds range     [1e+00, 1e+00]
  RHS range        [1e+00, 1e+00]
Found heuristic solution: objective 14105.000000
Presolve time: 0.01s
Presolved: 110 rows, 3000 columns, 6000 nonzeros
Variable types: 0 continuous, 3000 integer (3000 binary)

Root relaxation: objective 7.800000e+01, 97 iterations, 0.00 seconds

    Nodes    |    Current Node    |     Objective Bounds      |     Work
 Expl Unexpl |  Obj  Depth IntInf | Incumbent    BestBd   Gap | It/Node Time

*    0     0               0      78.0000000   78.00000  0.00%     -    0s

Explored 0 nodes (97 simplex iterations) in 0.02 seconds
Thread count was 3 (of 3 available processors)

Solution count 2: 78 14105 

Optimal solution found (tolerance 1.00e-04)
Best objective 7.800000000000e+01, best bound 7.800000000000e+01, gap 0.0000%
Warning: linear constraint 0 and linear constraint 1 have the same name "contrainteLigne"
